NAME : single
TYPE : ATSP
DIMENSION : 6
EDGE_WEIGHT_TYPE : EXPLICIT
EDGE_WEIGHT_FORMAT : FULL_MATRIX
EDGE_WEIGHT_SECTION
0 404 336 475 437 336 
0 0 157 286 174 153 
0 157 0 274 268 83 
0 286 274 0 285 255 
0 174 268 285 0 261 
0 153 83 255 261 0 
